nN = 5;
nR = 15;
nH = 1;

a = [[24, 17, 22, 11, 24, 11, 10, 24, 7, 12, 15, 9, 25, 12, 7], [9, 14, 17, 11, 5, 24, 19, 23, 14, 5, 19, 8, 24, 22, 14], [11, 25, 11, 23, 24, 16, 13, 6, 9, 12, 5, 9, 12, 8, 10], [18, 12, 7, 9, 21, 8, 16, 20, 17, 8, 15, 21, 20, 7, 18], [16, 25, 18, 14, 7, 15, 16, 18, 16, 8, 21, 8, 9, 17, 25]];
c = [[[0, 0, 0, 0, 0, 0, 0, 0, 0, 0, 0, 0, 0, 0, 0], [39, 33, 50, 41, 39, 43, 38, 31, 49, 41, 32, 36, 32, 37, 45], [38, 30, 46, 47, 47, 39, 42, 46, 50, 32, 31, 45, 31, 45, 48], [36, 48, 39, 30, 38, 48, 49, 35, 42, 42, 31, 41, 32, 35, 30], [42, 50, 47, 49, 35, 36, 36, 50, 50, 31, 47, 38, 41, 37, 48]], [[0, 0, 0, 0, 0, 0, 0, 0, 0, 0, 0, 0, 0, 0, 0], [0, 0, 0, 0, 0, 0, 0, 0, 0, 0, 0, 0, 0, 0, 0], [46, 49, 47, 30, 44, 30, 33, 37, 45, 34, 38, 37, 48, 49, 30], [47, 41, 48, 37, 38, 48, 48, 35, 45, 37, 40, 32, 30, 49, 47], [45, 47, 47, 46, 37, 33, 48, 37, 40, 47, 49, 46, 35, 45, 31]], [[0, 0, 0, 0, 0, 0, 0, 0, 0, 0, 0, 0, 0, 0, 0], [0, 0, 0, 0, 0, 0, 0, 0, 0, 0, 0, 0, 0, 0, 0], [0, 0, 0, 0, 0, 0, 0, 0, 0, 0, 0, 0, 0, 0, 0], [34, 40, 44, 37, 42, 47, 45, 33, 40, 45, 45, 37, 42, 42, 40], [45, 30, 44, 45, 45, 48, 44, 40, 38, 33, 50, 31, 49, 48, 38]], [[0, 0, 0, 0, 0, 0, 0, 0, 0, 0, 0, 0, 0, 0, 0], [0, 0, 0, 0, 0, 0, 0, 0, 0, 0, 0, 0, 0, 0, 0], [0, 0, 0, 0, 0, 0, 0, 0, 0, 0, 0, 0, 0, 0, 0], [0, 0, 0, 0, 0, 0, 0, 0, 0, 0, 0, 0, 0, 0, 0], [47, 32, 41, 40, 41, 41, 35, 35, 45, 34, 39, 45, 49, 46, 35]], [[0, 0, 0, 0, 0, 0, 0, 0, 0, 0, 0, 0, 0, 0, 0], [0, 0, 0, 0, 0, 0, 0, 0, 0, 0, 0, 0, 0, 0, 0], [0, 0, 0, 0, 0, 0, 0, 0, 0, 0, 0, 0, 0, 0, 0], [0, 0, 0, 0, 0, 0, 0, 0, 0, 0, 0, 0, 0, 0, 0], [0, 0, 0, 0, 0, 0, 0, 0, 0, 0, 0, 0, 0, 0, 0]]];
Q = [[34], [37], [42], [33], [32]];

q = [[[14], [25], [5], [19], [13], [25], [22], [17], [15], [6], [12], [6], [10], [9], [13]], [[8], [5], [22], [10], [11], [17], [15], [14], [17], [23], [13], [17], [16], [19], [20]], [[25], [8], [17], [24], [15], [24], [19], [6], [24], [8], [22], [22], [21], [18], [8]], [[9], [16], [19], [15], [15], [20], [14], [12], [7], [10], [14], [16], [18], [15], [6]], [[20], [15], [9], [7], [11], [20], [11], [20], [24], [10], [11], [9], [11], [13], [8]]];
p = [0.04, 0.66, 0.86, 0.47, 0.21, 0.57, 0.29, 0.77, 0.41, 0.45, 0.93, 0.44, 0.67, 0.63, 0.24];
